NAME : random191.1049.tour
COMMENT : Length = 1049
COMMENT : Found by LKH [Keld Helsgaun] Thu Sep 26 19:03:30 2024
TYPE : TOUR
DIMENSION : 191
TOUR_SECTION
1
95
98
47
187
19
106
94
148
145
141
188
60
104
180
163
161
190
134
87
62
152
86
48
101
55
30
72
125
41
140
162
16
120
57
114
159
179
124
66
182
7
100
175
10
18
79
64
143
12
29
51
13
34
84
74
121
186
93
126
77
2
97
44
149
164
147
185
102
176
154
70
32
76
115
43
103
96
118
129
183
178
99
144
171
82
35
181
116
135
83
109
73
3
22
59
173
6
27
191
78
23
37
168
156
119
68
71
165
127
133
158
139
67
174
137
117
25
132
131
108
155
9
157
53
4
46
33
151
89
36
138
91
52
170
75
8
58
20
24
54
172
39
92
150
107
130
49
17
123
28
63
146
81
11
160
38
169
128
167
177
110
56
5
184
26
166
21
153
189
65
80
136
112
113
15
61
142
50
42
69
45
31
122
40
85
111
88
90
14
105
-1
EOF
